p tw 173 619
0 1
0 132
0 171
1 72
1 95
1 106
1 109
1 131
1 162
1 163
1 164
2 3
2 4
2 66
2 102
2 126
2 143
2 147
2 163
2 166
2 171
3 4
3 7
4 57
4 67
4 101
4 125
4 127
5 6
5 13
5 22
5 23
5 24
5 25
5 26
6 118
6 141
7 36
7 92
7 121
7 122
7 123
7 124
7 125
7 126
8 9
8 20
8 133
9 19
9 23
9 158
9 168
10 11
10 12
10 55
10 56
10 57
11 12
11 65
11 66
11 67
12 31
12 32
12 33
12 34
13 14
13 22
13 23
13 24
13 25
13 26
14 15
15 24
15 71
16 17
16 21
17 54
17 155
18 19
18 20
18 58
18 59
18 60
19 20
19 23
19 158
19 168
20 133
21 34
21 48
21 51
21 52
21 53
21 54
22 23
22 24
22 25
22 26
22 134
22 141
22 142
23 24
23 25
23 26
23 158
23 168
24 25
24 26
24 71
25 26
25 96
25 97
25 98
26 118
26 119
26 120
27 28
27 29
27 30
27 70
27 76
27 86
27 90
27 96
27 119
27 122
27 134
28 29
28 30
28 75
28 82
29 30
29 78
29 83
29 91
30 85
30 135
31 32
31 33
31 34
31 47
31 55
31 65
31 81
32 33
32 34
32 79
33 34
33 56
33 80
34 48
34 51
34 52
34 53
34 54
35 36
35 37
35 38
35 68
35 69
35 70
36 37
36 38
36 92
36 121
36 122
36 123
36 124
36 125
36 126
37 38
37 86
37 87
37 88
38 74
38 75
38 76
38 77
38 78
39 40
39 50
39 63
39 103
39 104
39 105
39 106
39 107
39 108
40 109
40 110
41 42
41 68
41 74
41 121
41 148
41 150
42 69
42 77
42 149
42 151
43 44
43 161
43 170
44 160
44 169
45 46
45 139
45 140
46 113
46 146
46 165
47 48
47 49
47 50
47 55
47 65
47 81
48 49
48 50
48 51
48 52
48 53
48 54
49 50
49 64
49 155
49 156
50 63
50 103
50 104
50 105
50 106
50 107
50 108
51 52
51 53
51 54
51 62
51 63
51 64
52 53
52 54
52 61
53 54
53 107
53 117
53 156
54 155
55 56
55 57
55 65
55 81
56 57
56 80
57 67
57 101
57 125
57 127
58 59
58 60
58 128
58 129
58 130
58 131
58 132
59 60
59 167
59 168
60 97
60 133
60 157
60 158
61 62
61 117
62 63
62 64
62 117
63 64
63 103
63 104
63 105
63 106
63 107
63 108
64 155
64 156
65 66
65 67
65 81
66 67
66 102
66 126
66 143
66 147
66 163
66 166
66 171
67 101
67 125
67 127
68 69
68 70
68 74
68 121
68 148
68 150
69 70
69 77
69 149
69 151
70 76
70 86
70 90
70 96
70 119
70 122
70 134
71 98
71 120
71 142
72 73
72 95
72 106
72 109
72 131
72 162
72 163
72 164
73 129
73 143
74 75
74 76
74 77
74 78
74 121
74 148
74 150
75 76
75 77
75 78
75 82
76 77
76 78
76 86
76 90
76 96
76 119
76 122
76 134
77 78
77 149
77 151
78 83
78 91
79 80
79 81
80 81
82 83
82 84
82 85
83 84
83 85
83 91
84 85
84 136
85 135
86 87
86 88
86 90
86 96
86 119
86 122
86 134
87 88
87 123
88 89
88 124
89 90
89 124
90 96
90 119
90 122
90 134
91 135
91 136
92 93
92 121
92 122
92 123
92 124
92 125
92 126
93 101
93 102
94 95
94 108
94 110
94 159
95 106
95 109
95 131
95 162
95 163
95 164
96 97
96 98
96 119
96 122
96 134
97 98
97 133
97 157
97 158
98 120
98 142
99 100
99 148
99 149
100 150
100 151
101 102
101 125
101 127
102 126
102 143
102 147
102 163
102 166
102 171
103 104
103 105
103 106
103 107
103 108
103 112
103 144
103 172
104 105
104 106
104 107
104 108
104 111
104 145
104 152
104 153
104 154
105 106
105 107
105 108
105 114
105 115
105 116
106 107
106 108
106 109
106 131
106 162
106 163
106 164
107 108
107 117
107 156
108 110
108 159
109 110
109 131
109 162
109 163
109 164
110 159
111 112
111 113
111 145
111 152
111 153
111 154
112 113
112 144
112 172
113 146
113 165
114 115
114 116
114 138
114 153
114 160
114 161
115 116
115 154
115 159
115 162
116 137
116 152
116 164
116 169
116 170
117 156
118 119
118 120
118 141
119 120
119 122
119 134
120 142
121 122
121 123
121 124
121 125
121 126
121 148
121 150
122 123
122 124
122 125
122 126
122 134
123 124
123 125
123 126
124 125
124 126
125 126
125 127
126 143
126 147
126 163
126 166
126 171
127 130
127 147
128 129
128 130
128 131
128 132
128 157
128 166
128 167
129 130
129 131
129 132
129 143
130 131
130 132
130 147
131 132
131 162
131 163
131 164
132 171
133 157
133 158
134 141
134 142
135 136
137 138
137 152
137 164
137 169
137 170
138 153
138 160
138 161
139 140
139 165
139 172
140 144
140 145
140 146
141 142
143 147
143 163
143 166
143 171
144 145
144 146
144 172
145 146
145 152
145 153
145 154
146 165
147 163
147 166
147 171
148 149
148 150
149 151
150 151
152 153
152 154
152 164
152 169
152 170
153 154
153 160
153 161
154 159
154 162
155 156
157 158
157 166
157 167
158 168
159 162
160 161
160 169
161 170
162 163
162 164
163 164
163 166
163 171
164 169
164 170
165 172
166 167
166 171
167 168
169 170
